unknown
(model
; cardinality of BoundSet is 1
(declare-sort BoundSet 0)
; rep: @uc_BoundSet_0
; cardinality of UnboundSet is 1
(declare-sort UnboundSet 0)
(declare-fun groundTerm_2 () UnboundSet)
(define-fun IsImportant ((BOUND_VARIABLE_371 BoundSet)) Bool true)
(define-fun IsPutInto ((BOUND_VARIABLE_383 BoundSet) (BOUND_VARIABLE_384 BoundSet)) Bool false)
(define-fun IsAtExpenseOf ((BOUND_VARIABLE_383 BoundSet) (BOUND_VARIABLE_384 BoundSet)) Bool false)
)
sat
(model
; cardinality of BoundSet is 1
(declare-sort BoundSet 0)
; rep: @uc_BoundSet_0
; cardinality of UnboundSet is 1
(declare-sort UnboundSet 0)
(declare-fun groundTerm_4 () UnboundSet)
(define-fun IsImportant ((BOUND_VARIABLE_408 BoundSet)) Bool true)
(define-fun IsPutInto ((BOUND_VARIABLE_416 BoundSet) (BOUND_VARIABLE_417 BoundSet)) Bool false)
(define-fun IsAtExpenseOf ((BOUND_VARIABLE_416 BoundSet) (BOUND_VARIABLE_417 BoundSet)) Bool true)
)
